
Gurobi 11.0.2 (win64) logging started Fri Nov  1 14:54:47 2024

Set parameter LogFile to value ".\Experiments\Verification_16\Logs\vit_6_2_6_12_i4_r2_c3.log"
Set parameter TimeLimit to value 43200
Gurobi Optimizer version 11.0.2 build v11.0.2rc0 (win64 - Windows 10.0 (19045.2))

CPU model: Intel(R) Core(TM) i7-10750H CPU @ 2.60GHz, instruction set [SSE2|AVX|AVX2]
Thread count: 6 physical cores, 12 logical processors, using up to 12 threads

Optimize a model with 2925 rows, 4537 columns and 10536 nonzeros
Model fingerprint: 0x9fc17843
Model has 1238 quadratic constraints
Model has 420 general constraints
Variable types: 4237 continuous, 300 integer (300 binary)
Coefficient statistics:
  Matrix range     [1e-05, 1e+02]
  QMatrix range    [1e+00, 1e+00]
  QLMatrix range   [1e+00, 1e+00]
  Objective range  [1e+00, 1e+00]
  Bounds range     [1e-226, 5e+02]
  RHS range        [2e-03, 1e+02]
  QRHS range       [1e-06, 1e-06]
Presolve removed 1710 rows and 1918 columns
Presolve time: 0.03s
Presolved: 6963 rows, 2620 columns, 19507 nonzeros
Presolved model has 1113 bilinear constraint(s)
Presolved model has 288 nonlinear constraint(s)
Warning: Model contains variables with very large bounds participating
         in nonlinear terms.
         Presolve was not able to compute smaller bounds for these variables.
         Consider bounding these variables or reformulating the model.


Solving non-convex MINLP

Variable types: 2351 continuous, 269 integer (269 binary)

Root relaxation: objective -4.100563e+01, 2568 iterations, 0.11 seconds (0.11 work units)

    Nodes    |    Current Node    |     Objective Bounds      |     Work
 Expl Unexpl |  Obj  Depth IntInf | Incumbent    BestBd   Gap | It/Node Time

     0     0  -41.00563    0 1113          -  -41.00563      -     -    0s
     0     0  -41.00563    0 1119          -  -41.00563      -     -    0s
     0     0  -41.00563    0 1110          -  -41.00563      -     -    0s
     0     0  -41.00563    0 1110          -  -41.00563      -     -    0s
     0     0  -41.00563    0 1102          -  -41.00563      -     -    0s
     0     0  -41.00563    0 1103          -  -41.00563      -     -    0s
     0     0  -41.00563    0 1104          -  -41.00563      -     -    1s
     0     0  -41.00563    0 1103          -  -41.00563      -     -    1s
     0     0  -41.00563    0 1103          -  -41.00563      -     -    1s
     0     0  -41.00563    0 1105          -  -41.00563      -     -    1s
     0     0  -41.00563    0 1110          -  -41.00563      -     -    1s
     0     0  -41.00563    0 1101          -  -41.00563      -     -    1s
     0     0  -41.00563    0 1032          -  -41.00563      -     -    5s
     0     2  -41.00563    0 1032          -  -41.00563      -     -   12s
    42    58 infeasible    9               -  -41.00563      -   493   15s
   401   663  -41.00563   53 1004          -  -41.00563      -   298   23s
   714  1106  -41.00563   72  997          -  -41.00563      -   313   26s
  1542  1691  -41.00563  139  991          -  -41.00563      -   302   33s
  1846  2013  -41.00563   35 1025          -  -41.00563      -   314   36s
  2260  2330  -41.00563   69 1021          -  -41.00563      -   327   41s
  2636  2332  -41.00562  107   10          -  -41.00562      -   333   47s
  2647  2340  -41.00562   42    2          -  -41.00562      -   332   50s
  2653  2344  -41.00562   38    0          -  -41.00562      -   331   56s
  2656  2347  -41.00562   15  936          -  -41.00562      -   339   66s
  2740  2402  -41.00562   23  933          -  -41.00562      -   352   70s
  2881  2559  -41.00562   34  934          -  -41.00562      -   377   79s
  3003  2784  -41.00562   43  933          -  -41.00562      -   407   88s
  3374  2884  -41.00562   67  942          -  -41.00562      -   441   96s
  3700  3125  -41.00127   88  987          -  -41.00562      -   482  105s
  4156  3175  -41.00127  109  983          -  -41.00562      -   504  114s
  4431  3293  -41.00127  134 1036          -  -41.00562      -   541  122s
  4659  3470  -41.00127  149 1025          -  -41.00562      -   577  131s
  4989  3606  -41.00127  178 1022          -  -41.00562      -   611  142s
  5327  3474 infeasible  210               -  -41.00562      -   644  158s
  5358  3773 infeasible   20               -  -41.00562      -   646  169s
  5691  3963  -41.00562   42  933          -  -41.00562      -   680  182s
  6036  4242  -40.99254   77 1191          -  -41.00562      -   714  194s
  6514  4472  -41.00562   61  936          -  -41.00562      -   734  208s
  6969  4790  -41.00562   96  942          -  -41.00562      -   757  222s
  7585  5045  -41.00562  128 1025          -  -41.00562      -   763  235s
  8288  5205  -41.00562  162 1020          -  -41.00562      -   758  251s
  8749  5513  -41.00562  189 1035          -  -41.00562      -   777  267s
  9295  5708  -41.00562   24  942          -  -41.00562      -   791  288s
  9692  6077  -41.00562   38  925          -  -41.00562      -   814  304s
 10217  6575  -41.00562   61  931          -  -41.00562      -   833  322s
 10873  7093  -41.00562   77  985          -  -41.00562      -   841  341s
 11733  7515  -41.00562  104 1004          -  -41.00562      -   836  359s
 12293  7963  -41.00562  131 1009          -  -41.00562      -   851  378s
 12824  8467  -41.00562  154 1057          -  -41.00562      -   869  400s
 13489  8715  -41.00562  181 1038          -  -41.00562      -   880  423s
 13827  9274  -41.00562  182 1108          -  -41.00562      -   881  447s
 14654  9888  -41.00562   37  953          -  -41.00562      -   884  468s
 15390 10623  -41.00562   87  982          -  -41.00562      -   895  493s
 16502 11298  -41.00562  138 1113          -  -41.00562      -   886  517s
 17489 12026  -41.00562   80 1030          -  -41.00562      -   887  541s
 18481 12550  -41.00562  135 1021          -  -41.00562      -   886  566s
 19538 13102  -41.00562  176 1037          -  -41.00562      -   882  589s
 20312 13681  -41.00562   85  969          -  -41.00562      -   890  613s
 20966 14352  -41.00562   96  961          -  -41.00562      -   903  639s
 21785 14745  -41.00562  151 1070          -  -41.00562      -   909  666s
 22243 15421  -41.00562  178 1007          -  -41.00562      -   912  697s
 23214 16113  -41.00562  254 1027          -  -41.00562      -   915  723s
 24109 16695  -41.00562   50  933          -  -41.00562      -   918  748s
 25075 17350  -41.00562  100 1025          -  -41.00562      -   918  772s
 26070 17953  -41.00562  158  999          -  -41.00562      -   917  796s
 27129 18619  -41.00562  197  956          -  -41.00562      -   915  818s
 28287 19007  -41.00562  102 1029          -  -41.00562      -   908  846s
